c .nnodes 80
c .nvars 96
c .nsuppvars 96
c .ids  0 1 2 3 4 5 6 7 8 9 10 11 12 13 14 15 16 17 18 19 20 21 22 23 24 25 26 27 28 29 30 31 32 33 34 35 36 37 38 39 40 41 42 43 44 45 46 47 48 49 50 51 52 53 54 55 56 57 58 59 60 61 62 63 64 65 66 67 68 69 70 71 72 73 74 75 76 77 78 79 80 81 82 83 84 85 86 87 88 89 90 91 92 93 94 95 
c .cnfids  222 223 224 157 225 226 227 228 220 221 229 230 231 232 158 159 233 234 235 236 237 238 239 240 160 161 241 242 243 244 245 246 247 248 162 163 249 250 251 252 164 165 166 167 168 169 170 171 172 173 174 175 176 177 178 179 180 181 182 183 184 185 186 187 188 189 190 191 192 193 194 195 196 197 198 199 200 201 202 203 204 205 206 207 208 209 210 211 212 213 214 215 216 217 218 219 
c .nroots 1
c .rootids 2
p cnf 253 678
3 222 4 67 -72 0
3 -222 -4 67 -72 0
-3 -67 0
-3 222 -4 0
-3 72 0
-3 -222 4 0
4 -5 -66 0
4 5 66 0
-4 5 -66 0
-4 -5 66 0
5 160 6 0
5 161 6 0
-5 -6 0
-5 -160 -161 0
6 160 -161 7 0
6 -160 161 7 0
-6 -7 0
-6 160 161 0
-6 -160 -161 0
7 162 8 0
7 163 8 0
-7 -8 0
-7 -162 -163 0
8 162 -163 9 0
8 -162 163 9 0
-8 -9 0
-8 162 163 0
-8 -162 -163 0
9 164 10 0
9 165 10 0
-9 -10 0
-9 -164 -165 0
10 164 -165 11 0
10 -164 165 11 0
-10 -11 0
-10 164 165 0
-10 -164 -165 0
11 166 12 0
11 167 12 0
-11 -12 0
-11 -166 -167 0
12 166 -167 13 0
12 -166 167 13 0
-12 -13 0
-12 166 167 0
-12 -166 -167 0
13 168 14 0
13 169 14 0
-13 -14 0
-13 -168 -169 0
14 168 -169 15 0
14 -168 169 15 0
-14 -15 0
-14 168 169 0
-14 -168 -169 0
15 170 16 0
15 171 16 0
-15 -16 0
-15 -170 -171 0
16 170 -171 17 0
16 -170 171 17 0
-16 -17 0
-16 170 171 0
-16 -170 -171 0
17 172 18 0
17 173 18 0
-17 -18 0
-17 -172 -173 0
18 19 -65 0
-18 -19 0
-18 65 0
19 174 20 0
19 175 20 0
-19 -20 0
-19 -174 -175 0
20 174 -175 21 0
20 -174 175 21 0
-20 -21 0
-20 174 175 0
-20 -174 -175 0
21 176 22 0
21 177 22 0
-21 -22 0
-21 -176 -177 0
22 176 -177 23 0
22 -176 177 23 0
-22 -23 0
-22 176 177 0
-22 -176 -177 0
23 178 24 0
23 179 24 0
-23 -24 0
-23 -178 -179 0
24 178 -179 25 0
24 -178 179 25 0
-24 -25 0
-24 178 179 0
-24 -178 -179 0
25 180 26 0
25 181 26 0
-25 -26 0
-25 -180 -181 0
26 180 -181 27 0
26 -180 181 27 0
-26 -27 0
-26 180 181 0
-26 -180 -181 0
27 182 28 0
27 183 28 0
-27 -28 0
-27 -182 -183 0
28 182 -183 29 0
28 -182 183 29 0
-28 -29 0
-28 182 183 0
-28 -182 -183 0
29 184 30 0
29 185 30 0
-29 -30 0
-29 -184 -185 0
30 184 -185 31 0
30 -184 185 31 0
-30 -31 0
-30 184 185 0
-30 -184 -185 0
31 186 32 0
31 187 32 0
-31 -32 0
-31 -186 -187 0
32 186 -187 33 0
32 -186 187 33 0
-32 -33 0
-32 186 187 0
-32 -186 -187 0
33 188 34 0
33 189 34 0
-33 -34 0
-33 -188 -189 0
34 188 -189 35 0
34 -188 189 35 0
-34 -35 0
-34 188 189 0
-34 -188 -189 0
35 190 36 0
35 191 36 0
-35 -36 0
-35 -190 -191 0
36 190 -191 37 0
36 -190 191 37 0
-36 -37 0
-36 190 191 0
-36 -190 -191 0
37 192 38 0
37 193 38 0
-37 -38 0
-37 -192 -193 0
38 192 -193 39 0
38 -192 193 39 0
-38 -39 0
-38 192 193 0
-38 -192 -193 0
39 194 40 0
39 195 40 0
-39 -40 0
-39 -194 -195 0
40 41 -64 0
-40 -41 0
-40 64 0
41 196 42 0
41 197 42 0
-41 -42 0
-41 -196 -197 0
42 196 -197 43 0
42 -196 197 43 0
-42 -43 0
-42 196 197 0
-42 -196 -197 0
43 198 44 0
43 199 44 0
-43 -44 0
-43 -198 -199 0
44 198 -199 45 0
44 -198 199 45 0
-44 -45 0
-44 198 199 0
-44 -198 -199 0
45 200 46 0
45 201 46 0
-45 -46 0
-45 -200 -201 0
46 200 -201 47 0
46 -200 201 47 0
-46 -47 0
-46 200 201 0
-46 -200 -201 0
47 202 48 0
47 203 48 0
-47 -48 0
-47 -202 -203 0
48 202 -203 49 0
48 -202 203 49 0
-48 -49 0
-48 202 203 0
-48 -202 -203 0
49 204 50 0
49 205 50 0
-49 -50 0
-49 -204 -205 0
50 204 -205 51 0
50 -204 205 51 0
-50 -51 0
-50 204 205 0
-50 -204 -205 0
51 206 52 0
51 207 52 0
-51 -52 0
-51 -206 -207 0
52 206 -207 53 0
52 -206 207 53 0
-52 -53 0
-52 206 207 0
-52 -206 -207 0
53 208 54 0
53 209 54 0
-53 -54 0
-53 -208 -209 0
54 208 -209 55 0
54 -208 209 55 0
-54 -55 0
-54 208 209 0
-54 -208 -209 0
55 210 56 0
55 211 56 0
-55 -56 0
-55 -210 -211 0
56 210 -211 57 0
56 -210 211 57 0
-56 -57 0
-56 210 211 0
-56 -210 -211 0
57 212 58 0
57 213 58 0
-57 -58 0
-57 -212 -213 0
58 212 -213 59 0
58 -212 213 59 0
-58 -59 0
-58 212 213 0
-58 -212 -213 0
59 214 60 0
59 215 60 0
-59 -60 0
-59 -214 -215 0
60 61 -63 0
-60 -61 0
-60 63 0
61 216 62 0
61 217 62 0
61 216 217 0
-61 -216 -217 0
-61 -217 -62 0
-61 -216 -62 0
62 -218 -219 0
-62 218 0
-62 219 0
63 214 -215 0
63 -214 215 0
-63 -214 -215 0
-63 214 215 0
64 194 -195 0
64 -194 195 0
-64 -194 -195 0
-64 194 195 0
65 172 -173 0
65 -172 173 0
-65 -172 -173 0
-65 172 173 0
66 158 -159 0
66 -158 159 0
-66 -158 -159 0
-66 158 159 0
67 -68 -70 0
67 68 70 0
-67 68 -70 0
-67 -68 70 0
68 158 69 0
68 159 69 0
-68 -69 0
-68 -158 -159 0
69 158 -159 5 0
69 -158 159 5 0
-69 -5 0
-69 158 159 0
-69 -158 -159 0
70 157 -71 0
70 -157 71 0
-70 -157 -71 0
-70 157 71 0
71 220 -221 0
71 -220 221 0
-71 -220 -221 0
-71 220 221 0
72 223 73 75 -78 0
72 -223 -73 75 -78 0
-72 -75 0
-72 223 -73 0
-72 78 0
-72 -223 73 0
73 -7 -74 0
73 7 74 0
-73 7 -74 0
-73 -7 74 0
74 160 -161 0
74 -160 161 0
-74 -160 -161 0
-74 160 161 0
75 224 -76 0
75 -224 76 0
-75 -224 -76 0
-75 224 76 0
76 -9 -77 0
76 9 77 0
-76 9 -77 0
-76 -9 77 0
77 162 -163 0
77 -162 163 0
-77 -162 -163 0
-77 162 163 0
78 225 79 81 -84 0
78 -225 -79 81 -84 0
-78 -81 0
-78 225 -79 0
-78 84 0
-78 -225 79 0
79 -11 -80 0
79 11 80 0
-79 11 -80 0
-79 -11 80 0
80 164 -165 0
80 -164 165 0
-80 -164 -165 0
-80 164 165 0
81 226 -82 0
81 -226 82 0
-81 -226 -82 0
-81 226 82 0
82 -13 -83 0
82 13 83 0
-82 13 -83 0
-82 -13 83 0
83 166 -167 0
83 -166 167 0
-83 -166 -167 0
-83 166 167 0
84 227 85 87 -90 0
84 -227 -85 87 -90 0
-84 -87 0
-84 227 -85 0
-84 90 0
-84 -227 85 0
85 -15 -86 0
85 15 86 0
-85 15 -86 0
-85 -15 86 0
86 168 -169 0
86 -168 169 0
-86 -168 -169 0
-86 168 169 0
87 228 -88 0
87 -228 88 0
-87 -228 -88 0
-87 228 88 0
88 -17 -89 0
88 17 89 0
-88 17 -89 0
-88 -17 89 0
89 170 -171 0
89 -170 171 0
-89 -170 -171 0
-89 170 171 0
90 229 91 92 -95 0
90 -229 -91 92 -95 0
-90 -92 0
-90 229 -91 0
-90 95 0
-90 -229 91 0
91 -19 -65 0
91 19 65 0
-91 19 -65 0
-91 -19 65 0
92 230 -93 0
92 -230 93 0
-92 -230 -93 0
-92 230 93 0
93 -21 -94 0
93 21 94 0
-93 21 -94 0
-93 -21 94 0
94 174 -175 0
94 -174 175 0
-94 -174 -175 0
-94 174 175 0
95 231 96 98 -101 0
95 -231 -96 98 -101 0
-95 -98 0
-95 231 -96 0
-95 101 0
-95 -231 96 0
96 -23 -97 0
96 23 97 0
-96 23 -97 0
-96 -23 97 0
97 176 -177 0
97 -176 177 0
-97 -176 -177 0
-97 176 177 0
98 232 -99 0
98 -232 99 0
-98 -232 -99 0
-98 232 99 0
99 -25 -100 0
99 25 100 0
-99 25 -100 0
-99 -25 100 0
100 178 -179 0
100 -178 179 0
-100 -178 -179 0
-100 178 179 0
101 233 102 104 -107 0
101 -233 -102 104 -107 0
-101 -104 0
-101 233 -102 0
-101 107 0
-101 -233 102 0
102 -27 -103 0
102 27 103 0
-102 27 -103 0
-102 -27 103 0
103 180 -181 0
103 -180 181 0
-103 -180 -181 0
-103 180 181 0
104 234 -105 0
104 -234 105 0
-104 -234 -105 0
-104 234 105 0
105 -29 -106 0
105 29 106 0
-105 29 -106 0
-105 -29 106 0
106 182 -183 0
106 -182 183 0
-106 -182 -183 0
-106 182 183 0
107 235 108 110 -113 0
107 -235 -108 110 -113 0
-107 -110 0
-107 235 -108 0
-107 113 0
-107 -235 108 0
108 -31 -109 0
108 31 109 0
-108 31 -109 0
-108 -31 109 0
109 184 -185 0
109 -184 185 0
-109 -184 -185 0
-109 184 185 0
110 236 -111 0
110 -236 111 0
-110 -236 -111 0
-110 236 111 0
111 -33 -112 0
111 33 112 0
-111 33 -112 0
-111 -33 112 0
112 186 -187 0
112 -186 187 0
-112 -186 -187 0
-112 186 187 0
113 237 114 116 -119 0
113 -237 -114 116 -119 0
-113 -116 0
-113 237 -114 0
-113 119 0
-113 -237 114 0
114 -35 -115 0
114 35 115 0
-114 35 -115 0
-114 -35 115 0
115 188 -189 0
115 -188 189 0
-115 -188 -189 0
-115 188 189 0
116 238 -117 0
116 -238 117 0
-116 -238 -117 0
-116 238 117 0
117 -37 -118 0
117 37 118 0
-117 37 -118 0
-117 -37 118 0
118 190 -191 0
118 -190 191 0
-118 -190 -191 0
-118 190 191 0
119 239 120 122 -124 0
119 -239 -120 122 -124 0
-119 -122 0
-119 239 -120 0
-119 124 0
-119 -239 120 0
120 -39 -121 0
120 39 121 0
-120 39 -121 0
-120 -39 121 0
121 192 -193 0
121 -192 193 0
-121 -192 -193 0
-121 192 193 0
122 240 -123 0
122 -240 123 0
-122 -240 -123 0
-122 240 123 0
123 -41 -64 0
123 41 64 0
-123 41 -64 0
-123 -41 64 0
124 241 125 127 -130 0
124 -241 -125 127 -130 0
-124 -127 0
-124 241 -125 0
-124 130 0
-124 -241 125 0
125 -43 -126 0
125 43 126 0
-125 43 -126 0
-125 -43 126 0
126 196 -197 0
126 -196 197 0
-126 -196 -197 0
-126 196 197 0
127 242 -128 0
127 -242 128 0
-127 -242 -128 0
-127 242 128 0
128 -45 -129 0
128 45 129 0
-128 45 -129 0
-128 -45 129 0
129 198 -199 0
129 -198 199 0
-129 -198 -199 0
-129 198 199 0
130 243 131 133 -136 0
130 -243 -131 133 -136 0
-130 -133 0
-130 243 -131 0
-130 136 0
-130 -243 131 0
131 -47 -132 0
131 47 132 0
-131 47 -132 0
-131 -47 132 0
132 200 -201 0
132 -200 201 0
-132 -200 -201 0
-132 200 201 0
133 244 -134 0
133 -244 134 0
-133 -244 -134 0
-133 244 134 0
134 -49 -135 0
134 49 135 0
-134 49 -135 0
-134 -49 135 0
135 202 -203 0
135 -202 203 0
-135 -202 -203 0
-135 202 203 0
136 245 137 139 -142 0
136 -245 -137 139 -142 0
-136 -139 0
-136 245 -137 0
-136 142 0
-136 -245 137 0
137 -51 -138 0
137 51 138 0
-137 51 -138 0
-137 -51 138 0
138 204 -205 0
138 -204 205 0
-138 -204 -205 0
-138 204 205 0
139 246 -140 0
139 -246 140 0
-139 -246 -140 0
-139 246 140 0
140 -53 -141 0
140 53 141 0
-140 53 -141 0
-140 -53 141 0
141 206 -207 0
141 -206 207 0
-141 -206 -207 0
-141 206 207 0
142 247 143 145 -148 0
142 -247 -143 145 -148 0
-142 -145 0
-142 247 -143 0
-142 148 0
-142 -247 143 0
143 -55 -144 0
143 55 144 0
-143 55 -144 0
-143 -55 144 0
144 208 -209 0
144 -208 209 0
-144 -208 -209 0
-144 208 209 0
145 248 -146 0
145 -248 146 0
-145 -248 -146 0
-145 248 146 0
146 -57 -147 0
146 57 147 0
-146 57 -147 0
-146 -57 147 0
147 210 -211 0
147 -210 211 0
-147 -210 -211 0
-147 210 211 0
148 249 149 151 -153 0
148 -249 -149 151 -153 0
-148 -151 0
-148 249 -149 0
-148 153 0
-148 -249 149 0
149 -59 -150 0
149 59 150 0
-149 59 -150 0
-149 -59 150 0
150 212 -213 0
150 -212 213 0
-150 -212 -213 0
-150 212 213 0
151 250 -152 0
151 -250 152 0
-151 -250 -152 0
-151 250 152 0
152 -61 -63 0
152 61 63 0
-152 61 -63 0
-152 -61 63 0
153 -251 252 -154 156 0
153 251 -252 154 -156 0
153 251 252 154 156 0
153 -251 -252 -154 -156 0
-153 -251 154 0
-153 251 -154 0
-153 252 -156 0
-153 -252 156 0
154 62 -155 0
154 -62 155 0
-154 -62 -155 0
-154 62 155 0
155 216 -217 0
155 -216 217 0
-155 -216 -217 0
-155 216 217 0
156 218 -219 0
156 -218 219 0
-156 -218 -219 0
-156 218 219 0
253 0
2 -3 0
-2 3 0
2 0

